N = 4;
Capacity = 4;
ItemsPerCustomer = [6, 7, 5, 6];
maxItemsPerCustomer = 7;
binCapacity = 50;
SizesOfItems = [|
  39, 38, 32, 28, 26, 11, 0
| 32, 32, 31, 28, 15, 15, 10
| 35, 32, 18, 16, 12, 0, 0
| 36, 34, 27, 18, 18, 13, 0
|];
Distance = [|
  0, 36, 53, 20, 21
| 36, 0, 22, 40, 54
| 53, 22, 0, 49, 67
| 20, 40, 49, 0, 19
| 21, 54, 67, 19, 0
|];
